WARNING: for repeatability, setting FPU to use double precision
============================[ Problem Statistics ]=============================
|                                                                             |
|  Number of variables:            50                                         |
|  Number of clauses:             218                                         |
|  Parse time:                   0.00 s                                       |
|                                                                             |
============================[ Search Statistics ]==============================
| Conflicts |          ORIGINAL         |          LEARNT          | Progress |
|           |    Vars  Clauses Literals |    Limit  Clauses Lit/Cl |          |
===============================================================================
===============================================================================
restarts              : 1
conflicts             : 47             (33099 /sec)
decisions             : 49             (0.00 % random) (34507 /sec)
propagations          : 594            (418310 /sec)
conflict literals     : 148            (13.95 % deleted)
Memory used           : 20.00 MB
CPU time              : 0.00142 s

UNSATISFIABLE
